60

 0   2   2   3   3   4   4   5   6   1   2   4   5   6   2   2   3   3   3   5   5   6   6   7   7   3   3   3   5   5   6   6   6   6   7   7   8   4   5   8  10  10  10   5   5   6   7   7   7   8  10  11   6   9   9  10  11  11  12  12  
 2   0   0   1   1   2   2   3   4   3   2   2   3   4   4   4   3   3   3   3   3   4   4   5   5   5   5   5   3   3   4   4   4   4   5   5   6   6   5   6   8   8   8   7   7   6   5   5   5   6   8   9   8   7   7   8   9   9  10  10  
 2   0   0   1   1   2   2   3   4   3   2   2   3   4   4   4   3   3   3   3   3   4   4   5   5   5   5   5   3   3   4   4   4   4   5   5   6   6   5   6   8   8   8   7   7   6   5   5   5   6   8   9   8   7   7   8   9   9  10  10  
 3   1   1   0   0   1   1   2   3   4   3   1   2   3   5   5   4   4   4   2   2   3   3   4   4   6   6   6   4   4   3   3   3   3   4   4   5   7   6   5   7   7   7   8   8   7   6   6   6   5   7   8   9   6   6   7   8   8   9   9  
 3   1   1   0   0   1   1   2   3   4   3   1   2   3   5   5   4   4   4   2   2   3   3   4   4   6   6   6   4   4   3   3   3   3   4   4   5   7   6   5   7   7   7   8   8   7   6   6   6   5   7   8   9   6   6   7   8   8   9   9  
 4   2   2   1   1   0   0   1   2   5   4   2   1   2   6   6   5   5   5   3   3   2   2   3   3   7   7   7   5   5   4   4   4   4   3   3   4   8   7   4   6   6   6   9   9   8   7   7   7   6   6   7  10   7   7   6   7   7   8   8  
 4   2   2   1   1   0   0   1   2   5   4   2   1   2   6   6   5   5   5   3   3   2   2   3   3   7   7   7   5   5   4   4   4   4   3   3   4   8   7   4   6   6   6   9   9   8   7   7   7   6   6   7  10   7   7   6   7   7   8   8  
 5   3   3   2   2   1   1   0   1   6   5   3   2   1   7   7   6   6   6   4   4   3   3   2   2   8   8   8   6   6   5   5   5   5   4   4   3   9   8   5   5   5   5  10  10   9   8   8   8   7   5   6  11   8   8   7   6   6   7   7  
 6   4   4   3   3   2   2   1   0   7   6   4   3   2   8   8   7   7   7   5   5   4   4   3   3   9   9   9   7   7   6   6   6   6   5   5   4  10   9   6   4   4   4  11  11  10   9   9   9   8   6   5  12   9   9   8   7   7   6   6  
 1   3   3   4   4   5   5   6   7   0   1   3   4   5   1   1   2   2   2   4   4   5   5   6   6   2   2   2   4   4   5   5   5   5   6   6   7   3   4   7   9   9   9   4   4   5   6   6   6   7   9  10   5   8   8   9  10  10  11  11  
 2   2   2   3   3   4   4   5   6   1   0   2   3   4   2   2   1   1   1   3   3   4   4   5   5   3   3   3   3   3   4   4   4   4   5   5   6   4   3   6   8   8   8   5   5   4   5   5   5   6   8   9   6   7   7   8   9   9  10  10  
 4   2   2   1   1   2   2   3   4   3   2   0   1   2   4   4   3   3   3   1   1   2   2   3   3   5   5   5   3   3   2   2   2   2   3   3   4   6   5   4   6   6   6   7   7   6   5   5   5   4   6   7   8   5   5   6   7   7   8   8  
 5   3   3   2   2   1   1   2   3   4   3   1   0   1   5   5   4   4   4   2   2   1   1   2   2   6   6   6   4   4   3   3   3   3   2   2   3   7   6   3   5   5   5   8   8   7   6   6   6   5   5   6   9   6   6   5   6   6   7   7  
 6   4   4   3   3   2   2   1   2   5   4   2   1   0   6   6   5   5   5   3   3   2   2   1   1   7   7   7   5   5   4   4   4   4   3   3   2   8   7   4   4   4   4   9   9   8   7   7   7   6   4   5  10   7   7   6   5   5   6   6  
 2   4   4   5   5   6   6   7   8   1   2   4   5   6   0   0   1   1   1   3   3   4   4   5   5   1   1   1   3   3   4   4   4   4   5   5   6   2   3   6   8   8   8   3   3   4   5   5   5   6   8   9   4   7   7   8   9   9  10  10  
 2   4   4   5   5   6   6   7   8   1   2   4   5   6   0   0   1   1   1   3   3   4   4   5   5   1   1   1   3   3   4   4   4   4   5   5   6   2   3   6   8   8   8   3   3   4   5   5   5   6   8   9   4   7   7   8   9   9  10  10  
 3   3   3   4   4   5   5   6   7   2   1   3   4   5   1   1   0   0   0   2   2   3   3   4   4   2   2   2   2   2   3   3   3   3   4   4   5   3   2   5   7   7   7   4   4   3   4   4   4   5   7   8   5   6   6   7   8   8   9   9  
 3   3   3   4   4   5   5   6   7   2   1   3   4   5   1   1   0   0   0   2   2   3   3   4   4   2   2   2   2   2   3   3   3   3   4   4   5   3   2   5   7   7   7   4   4   3   4   4   4   5   7   8   5   6   6   7   8   8   9   9  
 3   3   3   4   4   5   5   6   7   2   1   3   4   5   1   1   0   0   0   2   2   3   3   4   4   2   2   2   2   2   3   3   3   3   4   4   5   3   2   5   7   7   7   4   4   3   4   4   4   5   7   8   5   6   6   7   8   8   9   9  
 5   3   3   2   2   3   3   4   5   4   3   1   2   3   3   3   2   2   2   0   0   1   1   2   2   4   4   4   2   2   1   1   1   1   2   2   3   5   4   3   5   5   5   6   6   5   4   4   4   3   5   6   7   4   4   5   6   6   7   7  
 5   3   3   2   2   3   3   4   5   4   3   1   2   3   3   3   2   2   2   0   0   1   1   2   2   4   4   4   2   2   1   1   1   1   2   2   3   5   4   3   5   5   5   6   6   5   4   4   4   3   5   6   7   4   4   5   6   6   7   7  
 6   4   4   3   3   2   2   3   4   5   4   2   1   2   4   4   3   3   3   1   1   0   0   1   1   5   5   5   3   3   2   2   2   2   1   1   2   6   5   2   4   4   4   7   7   6   5   5   5   4   4   5   8   5   5   4   5   5   6   6  
 6   4   4   3   3   2   2   3   4   5   4   2   1   2   4   4   3   3   3   1   1   0   0   1   1   5   5   5   3   3   2   2   2   2   1   1   2   6   5   2   4   4   4   7   7   6   5   5   5   4   4   5   8   5   5   4   5   5   6   6  
 7   5   5   4   4   3   3   2   3   6   5   3   2   1   5   5   4   4   4   2   2   1   1   0   0   6   6   6   4   4   3   3   3   3   2   2   1   7   6   3   3   3   3   8   8   7   6   6   6   5   3   4   9   6   6   5   4   4   5   5  
 7   5   5   4   4   3   3   2   3   6   5   3   2   1   5   5   4   4   4   2   2   1   1   0   0   6   6   6   4   4   3   3   3   3   2   2   1   7   6   3   3   3   3   8   8   7   6   6   6   5   3   4   9   6   6   5   4   4   5   5  
 3   5   5   6   6   7   7   8   9   2   3   5   6   7   1   1   2   2   2   4   4   5   5   6   6   0   0   0   2   2   3   3   3   3   4   4   5   1   2   5   7   7   7   2   2   3   4   4   4   5   7   8   3   6   6   7   8   8   9   9  
 3   5   5   6   6   7   7   8   9   2   3   5   6   7   1   1   2   2   2   4   4   5   5   6   6   0   0   0   2   2   3   3   3   3   4   4   5   1   2   5   7   7   7   2   2   3   4   4   4   5   7   8   3   6   6   7   8   8   9   9  
 3   5   5   6   6   7   7   8   9   2   3   5   6   7   1   1   2   2   2   4   4   5   5   6   6   0   0   0   2   2   3   3   3   3   4   4   5   1   2   5   7   7   7   2   2   3   4   4   4   5   7   8   3   6   6   7   8   8   9   9  
 5   3   3   4   4   5   5   6   7   4   3   3   4   5   3   3   2   2   2   2   2   3   3   4   4   2   2   2   0   0   1   1   1   1   2   2   3   3   2   3   5   5   5   4   4   3   2   2   2   3   5   6   5   4   4   5   6   6   7   7  
 5   3   3   4   4   5   5   6   7   4   3   3   4   5   3   3   2   2   2   2   2   3   3   4   4   2   2   2   0   0   1   1   1   1   2   2   3   3   2   3   5   5   5   4   4   3   2   2   2   3   5   6   5   4   4   5   6   6   7   7  
 6   4   4   3   3   4   4   5   6   5   4   2   3   4   4   4   3   3   3   1   1   2   2   3   3   3   3   3   1   1   0   0   0   0   1   1   2   4   3   2   4   4   4   5   5   4   3   3   3   2   4   5   6   3   3   4   5   5   6   6  
 6   4   4   3   3   4   4   5   6   5   4   2   3   4   4   4   3   3   3   1   1   2   2   3   3   3   3   3   1   1   0   0   0   0   1   1   2   4   3   2   4   4   4   5   5   4   3   3   3   2   4   5   6   3   3   4   5   5   6   6  
 6   4   4   3   3   4   4   5   6   5   4   2   3   4   4   4   3   3   3   1   1   2   2   3   3   3   3   3   1   1   0   0   0   0   1   1   2   4   3   2   4   4   4   5   5   4   3   3   3   2   4   5   6   3   3   4   5   5   6   6  
 6   4   4   3   3   4   4   5   6   5   4   2   3   4   4   4   3   3   3   1   1   2   2   3   3   3   3   3   1   1   0   0   0   0   1   1   2   4   3   2   4   4   4   5   5   4   3   3   3   2   4   5   6   3   3   4   5   5   6   6  
 7   5   5   4   4   3   3   4   5   6   5   3   2   3   5   5   4   4   4   2   2   1   1   2   2   4   4   4   2   2   1   1   1   1   0   0   1   5   4   1   3   3   3   6   6   5   4   4   4   3   3   4   7   4   4   3   4   4   5   5  
 7   5   5   4   4   3   3   4   5   6   5   3   2   3   5   5   4   4   4   2   2   1   1   2   2   4   4   4   2   2   1   1   1   1   0   0   1   5   4   1   3   3   3   6   6   5   4   4   4   3   3   4   7   4   4   3   4   4   5   5  
 8   6   6   5   5   4   4   3   4   7   6   4   3   2   6   6   5   5   5   3   3   2   2   1   1   5   5   5   3   3   2   2   2   2   1   1   0   6   5   2   2   2   2   7   7   6   5   5   5   4   2   3   8   5   5   4   3   3   4   4  
 4   6   6   7   7   8   8   9  10   3   4   6   7   8   2   2   3   3   3   5   5   6   6   7   7   1   1   1   3   3   4   4   4   4   5   5   6   0   1   4   6   6   6   1   1   2   3   3   3   4   6   7   2   5   5   6   7   7   8   8  
 5   5   5   6   6   7   7   8   9   4   3   5   6   7   3   3   2   2   2   4   4   5   5   6   6   2   2   2   2   2   3   3   3   3   4   4   5   1   0   3   5   5   5   2   2   1   2   2   2   3   5   6   3   4   4   5   6   6   7   7  
 8   6   6   5   5   4   4   5   6   7   6   4   3   4   6   6   5   5   5   3   3   2   2   3   3   5   5   5   3   3   2   2   2   2   1   1   2   4   3   0   2   2   2   5   5   4   3   3   3   2   2   3   6   3   3   2   3   3   4   4  
10   8   8   7   7   6   6   5   4   9   8   6   5   4   8   8   7   7   7   5   5   4   4   3   3   7   7   7   5   5   4   4   4   4   3   3   2   6   5   2   0   0   0   7   7   6   5   5   5   4   2   1   8   5   5   4   3   3   2   2  
10   8   8   7   7   6   6   5   4   9   8   6   5   4   8   8   7   7   7   5   5   4   4   3   3   7   7   7   5   5   4   4   4   4   3   3   2   6   5   2   0   0   0   7   7   6   5   5   5   4   2   1   8   5   5   4   3   3   2   2  
10   8   8   7   7   6   6   5   4   9   8   6   5   4   8   8   7   7   7   5   5   4   4   3   3   7   7   7   5   5   4   4   4   4   3   3   2   6   5   2   0   0   0   7   7   6   5   5   5   4   2   1   8   5   5   4   3   3   2   2  
 5   7   7   8   8   9   9  10  11   4   5   7   8   9   3   3   4   4   4   6   6   7   7   8   8   2   2   2   4   4   5   5   5   5   6   6   7   1   2   5   7   7   7   0   0   1   2   2   2   3   5   6   1   4   4   5   6   6   7   7  
 5   7   7   8   8   9   9  10  11   4   5   7   8   9   3   3   4   4   4   6   6   7   7   8   8   2   2   2   4   4   5   5   5   5   6   6   7   1   2   5   7   7   7   0   0   1   2   2   2   3   5   6   1   4   4   5   6   6   7   7  
 6   6   6   7   7   8   8   9  10   5   4   6   7   8   4   4   3   3   3   5   5   6   6   7   7   3   3   3   3   3   4   4   4   4   5   5   6   2   1   4   6   6   6   1   1   0   1   1   1   2   4   5   2   3   3   4   5   5   6   6  
 7   5   5   6   6   7   7   8   9   6   5   5   6   7   5   5   4   4   4   4   4   5   5   6   6   4   4   4   2   2   3   3   3   3   4   4   5   3   2   3   5   5   5   2   2   1   0   0   0   1   3   4   3   2   2   3   4   4   5   5  
 7   5   5   6   6   7   7   8   9   6   5   5   6   7   5   5   4   4   4   4   4   5   5   6   6   4   4   4   2   2   3   3   3   3   4   4   5   3   2   3   5   5   5   2   2   1   0   0   0   1   3   4   3   2   2   3   4   4   5   5  
 7   5   5   6   6   7   7   8   9   6   5   5   6   7   5   5   4   4   4   4   4   5   5   6   6   4   4   4   2   2   3   3   3   3   4   4   5   3   2   3   5   5   5   2   2   1   0   0   0   1   3   4   3   2   2   3   4   4   5   5  
 8   6   6   5   5   6   6   7   8   7   6   4   5   6   6   6   5   5   5   3   3   4   4   5   5   5   5   5   3   3   2   2   2   2   3   3   4   4   3   2   4   4   4   3   3   2   1   1   1   0   2   3   4   1   1   2   3   3   4   4  
10   8   8   7   7   6   6   5   6   9   8   6   5   4   8   8   7   7   7   5   5   4   4   3   3   7   7   7   5   5   4   4   4   4   3   3   2   6   5   2   2   2   2   5   5   4   3   3   3   2   0   1   6   3   3   2   1   1   2   2  
11   9   9   8   8   7   7   6   5  10   9   7   6   5   9   9   8   8   8   6   6   5   5   4   4   8   8   8   6   6   5   5   5   5   4   4   3   7   6   3   1   1   1   6   6   5   4   4   4   3   1   0   7   4   4   3   2   2   1   1  
 6   8   8   9   9  10  10  11  12   5   6   8   9  10   4   4   5   5   5   7   7   8   8   9   9   3   3   3   5   5   6   6   6   6   7   7   8   2   3   6   8   8   8   1   1   2   3   3   3   4   6   7   0   3   3   4   5   5   6   6  
 9   7   7   6   6   7   7   8   9   8   7   5   6   7   7   7   6   6   6   4   4   5   5   6   6   6   6   6   4   4   3   3   3   3   4   4   5   5   4   3   5   5   5   4   4   3   2   2   2   1   3   4   3   0   0   1   2   2   3   3  
 9   7   7   6   6   7   7   8   9   8   7   5   6   7   7   7   6   6   6   4   4   5   5   6   6   6   6   6   4   4   3   3   3   3   4   4   5   5   4   3   5   5   5   4   4   3   2   2   2   1   3   4   3   0   0   1   2   2   3   3  
10   8   8   7   7   6   6   7   8   9   8   6   5   6   8   8   7   7   7   5   5   4   4   5   5   7   7   7   5   5   4   4   4   4   3   3   4   6   5   2   4   4   4   5   5   4   3   3   3   2   2   3   4   1   1   0   1   1   2   2  
11   9   9   8   8   7   7   6   7  10   9   7   6   5   9   9   8   8   8   6   6   5   5   4   4   8   8   8   6   6   5   5   5   5   4   4   3   7   6   3   3   3   3   6   6   5   4   4   4   3   1   2   5   2   2   1   0   0   1   1  
11   9   9   8   8   7   7   6   7  10   9   7   6   5   9   9   8   8   8   6   6   5   5   4   4   8   8   8   6   6   5   5   5   5   4   4   3   7   6   3   3   3   3   6   6   5   4   4   4   3   1   2   5   2   2   1   0   0   1   1  
12  10  10   9   9   8   8   7   6  11  10   8   7   6  10  10   9   9   9   7   7   6   6   5   5   9   9   9   7   7   6   6   6   6   5   5   4   8   7   4   2   2   2   7   7   6   5   5   5   4   2   1   6   3   3   2   1   1   0   0  
12  10  10   9   9   8   8   7   6  11  10   8   7   6  10  10   9   9   9   7   7   6   6   5   5   9   9   9   7   7   6   6   6   6   5   5   4   8   7   4   2   2   2   7   7   6   5   5   5   4   2   1   6   3   3   2   1   1   0   0  

 0  30  28  28  30  28  21  24  39  22  30  39  14  29  28  31  37  22  31  28  21  37  28  30  33  29  47  38  33  29  38  40  38  28  37  37  15  37  27  39  26  38  14  23  32  39  30  33  34  30  21  32  32  49  22  33  29  32  30  31  
 0   0  28  30  30  28  30  30  30  28  35  30  32  30  30  27  35  30  28  36  30  30  30  33  27  30  33  30  30  33  30  24  33  39  28  36  32  24  33  27  27  31  32  30  30  38  30  30  35  30  30  30  24  28  30  24  30  27  35  32  
 0   0   0  26  30  25  31  30  30  28  32  30  36  30  30  34  32  29  28  31  30  31  30  26  25  29  30  31  30  29  34  30  30  34  28  34  32  35  26  29  37  28  29  21  30  32  30  33  32  34  26  27  32  28  30  29  31  30  32  32  
 0   0   0   0  33  28  40  30  30  33  33  30  31  27  23  32  31  35  25  20  38  10  40  26  28  25  25  30  30  35  49  32  40  37  27  37  35  27  24  22  37  43  36  23  32  42  24  25  45  34  33  32  33  32  30  16  30  19  33  35  
 0   0   0   0   0  27  30  30  30  27  30  30  33  30  30  27  30  30  30  30  30  30  30  30  30  30  30  30  30  33  30  30  30  30  30  27  30  30  30  30  27  30  30  33  30  30  33  33  30  30  30  30  27  30  30  30  30  30  30  30  
 0   0   0   0   0   0  37  30  35  17  18  28  52  33  25  36  31  37  29  31  35  29  28  25  22  30  33  17  32  25  30  38  36  35  19  26  32  30  16  45  34  28  15  39  30  37  33  38  32  23  30  27  30  28  15  40  35  40  42  46  
 0   0   0   0   0   0   0  30  26  22  40  30  23  30  37  22  41  24  30  39  30  46  30  30  34  35  51  29  30  28  28  38  25  33  34  38  30  30  31  40  25  25  37  11  30  16  26  30  27  30  22  26  27  38  22  37  29  33  26  30  
 0   0   0   0   0   0   0   0  30  30  30  30  24  30  30  30  30  30  30  30  30  30  36  30  30  30  30  30  24  30  30  30  30  30  36  30  24  36  30  30  30  30  30  30  30  30  30  30  30  30  36  24  36  30  30  30  30  30  30  30  
 0   0   0   0   0   0   0   0   0  38  37  19  34  32  23  26  30  39  23  30  39  23  39  28  30  34  19  21  23  42  30  22  36  21  34  38  48  43  41  27  30  30  46  26  30   9  26  32  26  37  39  17  34  21  29  34  21  28  28  22  
 0   0   0   0   0   0   0   0   0   0  32  30  26  30  30  35  40  21  28  30  30  47  22  30  22  30  38  22  30  17  38  54  38  30  29  36  23  39  31  46  19  27  32  25  30  40  33  33  40  30  22  21  19  36  13  30  30  47  32  48  
 0   0   0   0   0   0   0   0   0   0   0  30  42  33  30  37  22  37  39  30  27  23  30  26  30  33  27  30  30  27  30  30  30  31  32  30  21  29  23  43  30  29  11  37  30  31  33  30  22  23  30  30  30  32  23  37  37  36  32  28  
 0   0   0   0   0   0   0   0   0   0   0   0  41  33  30  30  30  37  32  30  39  22  39  34  29  32  21  21  21  31  30  28  28  28  30  29  41  28  30  28  30  29  39  32  30  22  29  33  29  30  41  21  31  22  30  30  27  33  26  28  
 0   0   0   0   0   0   0   0   0   0   0   0   0  27  30  23  29   5  26  29  21  52  26  39  34  30  41  39  31  27  26  30  32  22  48  39   8  53  49  23  30  23  33  25  30  37  27  25  28  33  31  24  39  41  28  27  25  37  23  27  
 0   0   0   0   0   0   0   0   0   0   0   0   0   0  30  31  34  30  31  29  33  26  29  28  31  27  32  30  28  31  30  30  32  35  31  32  28  28  29  27  31  34  33  31  30  26  28  27  34  30  30  30  29  29  30  30  33  24  32  29  
 0   0   0   0   0   0   0   0   0   0   0   0   0   0   0  32  28  37  18  30  35  18  35  23  32  28  35  25  30  28  30  32  30  23  32  30  42  37  35  23  35  30  28  37  32  35  30  28  32  37  32  32  30  32  37  37  23  32  40  35  
 0   0   0   0   0   0   0   0   0   0   0   0   0   0   0   0  29  23  24  31  35  27  44  35  39  34  35  33  30  45  26  20  25  28  39  22  35  22  50  26  24  33  37  25  32  31  31  33  34  26  34  26  31  30  38  31  30  18  28  28  
 0   0   0   0   0   0   0   0   0   0   0   0   0   0   0   0   0  30  31  31  27  31  31  33  32  31  19  30  30  25  22  24  22  24  33  21  28  37  29  28  37  21  23  37  32  31  33  28  24  30  40  32  38  26  38  30  30  38  23  29  
 0   0   0   0   0   0   0   0   0   0   0   0   0   0   0   0   0   0  32  31  21  59  16  39  29  31  41  35  37  31  25  28  30  30  44  39  12  39  39  32  35  21  23  25  30  39  30  30  30  30  18  30  29  39  21  23  31  39  21  28  
 0   0   0   0   0   0   0   0   0   0   0   0   0   0   0   0   0   0   0  31  35  28  36  28  30  28  33  25  32  28  30  32  30  23  27  29  44  38  38  25  34  28  39  27  30  37  30  30  32  37  28  30  30  28  37  30  23  30  39  40  
 0   0   0   0   0   0   0   0   0   0   0   0   0   0   0   0   0   0   0   0  30  18  29  24  31  31  20  29  30  41  40  36  40  24  31  25  30  29  29  31  31  40  30  31  30  34  30  30  40  30  30  30  37  30  30  26  29  20  30  29  
 0   0   0   0   0   0   0   0   0   0   0   0   0   0   0   0   0   0   0   0   0  44  16  30  30  33  34  44  39  30  30  30  30  27  30  30  16  33  30  33  25  27  18  30  30  37  33  30  27  30  21  39  30  39  30  30  30  33  25  25  
 0   0   0   0   0   0   0   0   0   0   0   0   0   0   0   0   0   0   0   0   0   0  56  25  40  33  20  28  17  52  45  22  34  30  27  23  51  12  28  16  31  50  37  40  28  35  29  27  41  30  46  30  30  20  47  27  32   0  42  24  
 0   0   0   0   0   0   0   0   0   0   0   0   0   0   0   0   0   0   0   0   0   0   0  30  22  30  34  31  45  22  25  38  38  32  24  33  22  29  21  43  31  30  18  31  30  34  30  28  28  30  10  45  24  39  22  30  30  38  23  30  
 0   0   0   0   0   0   0   0   0   0   0   0   0   0   0   0   0   0   0   0   0   0   0   0  26  32  33  30  30  35  34  36  32  35  32  28  28  31  30  33  34  30  23  27  32  20  28  28  37  34  24  26  40  30  30  43  32  21  44  32  
 0   0   0   0   0   0   0   0   0   0   0   0   0   0   0   0   0   0   0   0   0   0   0   0   0  31  30  23  30  22  34  36  41  34  20  33  30  35  23  37  31  32  32  26  28  31  29  33  27  34  24  28  30  29  22  26  30  37  32  38  
 0   0   0   0   0   0   0   0   0   0   0   0   0   0   0   0   0   0   0   0   0   0   0   0   0   0  28  31  32  21  30  34  30  33  28  30  30  27  24  24  30  33  31  32  32  31  31  28  31  30  30  36  25  32  30  26  31  33  30  32  
 0   0   0   0   0   0   0   0   0   0   0   0   0   0   0   0   0   0   0   0   0   0   0   0   0   0   0  26  25  35  32  24  30  25  30  22  36  31  30  27  33  32  39  36  30  26  30  32  37  30  45  21  38  13  38  20  28  25  22  27  
 0   0   0   0   0   0   0   0   0   0   0   0   0   0   0   0   0   0   0   0   0   0   0   0   0   0   0   0  21  23  25  38  38  30  27  30  44  38  22  44  40  30  34  30  30  26  30  30  30  30  34  21  31  21  22  30  29  38  35  43  
 0   0   0   0   0   0   0   0   0   0   0   0   0   0   0   0   0   0   0   0   0   0   0   0   0   0   0   0   0  32  30  28  32  32  36  30  31  38  30  28  30  30  39  32  30  21  30  28  30  30  47  15  36  21  30  30  32  28  30  28  
 0   0   0   0   0   0   0   0   0   0   0   0   0   0   0   0   0   0   0   0   0   0   0   0   0   0   0   0   0   0  20  50  20  27  20  24  30  33  16  38  33  19  28  29  32  33  30  26  22  30  30  36  29  33  30  36  30  58  27  48  
 0   0   0   0   0   0   0   0   0   0   0   0   0   0   0   0   0   0   0   0   0   0   0   0   0   0   0   0   0   0   0  22  12  26  35  18  30  30  34  27  39  12  25  42  30  20  30  30  20  26  37  30  38  22  38  44  30  40  30  30  
 0   0   0   0   0   0   0   0   0   0   0   0   0   0   0   0   0   0   0   0   0   0   0   0   0   0   0   0   0   0   0   0  22  38  34  36  30  32  40  12  38  22  32  40  30  28  32  32  20  30  38  28  32  20  38  24  30  20  30  12  
 0   0   0   0   0   0   0   0   0   0   0   0   0   0   0   0   0   0   0   0   0   0   0   0   0   0   0   0   0   0   0   0   0  28  38  14  32  15  35  14  41   9  30  38  30  28  30  32  28  30  38  30  38  22  54  40  28  34  28  30  
 0   0   0   0   0   0   0   0   0   0   0   0   0   0   0   0   0   0   0   0   0   0   0   0   0   0   0   0   0   0   0   0   0   0  30  18  40  41  41  29  26  27  32  34  28  27  31  34  26  33  34  30  36  30  37  40  21  38  27  32  
 0   0   0   0   0   0   0   0   0   0   0   0   0   0   0   0   0   0   0   0   0   0   0   0   0   0   0   0   0   0   0   0   0   0   0  18  47  28  12  29  24  37  37  33  30  36  36  34  28  30  27  47  20  26  31  26  30  31  36  43  
 0   0   0   0   0   0   0   0   0   0   0   0   0   0   0   0   0   0   0   0   0   0   0   0   0   0   0   0   0   0   0   0   0   0   0   0  39  16  26  22  30  30  28  44  30  33  32  36  39  26  42  39  42  23  55  40  29  22  32  41  
 0   0   0   0   0   0   0   0   0   0   0   0   0   0   0   0   0   0   0   0   0   0   0   0   0   0   0   0   0   0   0   0   0   0   0   0   0  40  32  37  25  23  12  30  30  32  30  28  28  23  27  24  36  41  14  30  39  37  25  23  
 0   0   0   0   0   0   0   0   0   0   0   0   0   0   0   0   0   0   0   0   0   0   0   0   0   0   0   0   0   0   0   0   0   0   0   0   0   0  24  23  28  45  28  36  28  35  25  30  42  23  24  45  24  30  48  30  35   9  29  27  
 0   0   0   0   0   0   0   0   0   0   0   0   0   0   0   0   0   0   0   0   0   0   0   0   0   0   0   0   0   0   0   0   0   0   0   0   0   0   0  41  38  36  21  31  32  34  34  28  28  27  28  45  26  32  24  22  37  35  28  37  
 0   0   0   0   0   0   0   0   0   0   0   0   0   0   0   0   0   0   0   0   0   0   0   0   0   0   0   0   0   0   0   0   0   0   0   0   0   0   0   0  33  25  45  44  30  31  31  30  32  37  45  34  33  22  53  26  24  20  31  20  
 0   0   0   0   0   0   0   0   0   0   0   0   0   0   0   0   0   0   0   0   0   0   0   0   0   0   0   0   0   0   0   0   0   0   0   0   0   0   0   0   0  41  38  28  30  25  33  30  30  26  31  33  16  38  22  31  30  30  25  26  
 0   0   0   0   0   0   0   0   0   0   0   0   0   0   0   0   0   0   0   0   0   0   0   0   0   0   0   0   0   0   0   0   0   0   0   0   0   0   0   0   0   0  29  38  30  26  32  31  18  30  38  21  39  21  29  40  29  53  32  32  
 0   0   0   0   0   0   0   0   0   0   0   0   0   0   0   0   0   0   0   0   0   0   0   0   0   0   0   0   0   0   0   0   0   0   0   0   0   0   0   0   0   0   0  37  32  40  33  33  29  23  18  38  33  43  23  40  37  35  35  30  
 0   0   0   0   0   0   0   0   0   0   0   0   0   0   0   0   0   0   0   0   0   0   0   0   0   0   0   0   0   0   0   0   0   0   0   0   0   0   0   0   0   0   0   0  30  26  23  27  34  34  16  26  29  38  22  23  30  26  25  33  
 0   0   0   0   0   0   0   0   0   0   0   0   0   0   0   0   0   0   0   0   0   0   0   0   0   0   0   0   0   0   0   0   0   0   0   0   0   0   0   0   0   0   0   0   0  30  28  32  28  30  28  28  30  28  30  30  30  28  32  30  
 0   0   0   0   0   0   0   0   0   0   0   0   0   0   0   0   0   0   0   0   0   0   0   0   0   0   0   0   0   0   0   0   0   0   0   0   0   0   0   0   0   0   0   0   0   0  24  29  18  30  39  17  39  22  22  50  31  32  23  15  
 0   0   0   0   0   0   0   0   0   0   0   0   0   0   0   0   0   0   0   0   0   0   0   0   0   0   0   0   0   0   0   0   0   0   0   0   0   0   0   0   0   0   0   0   0   0   0  28  36  30  30  26  38  31  30  34  29  24  30  30  
 0   0   0   0   0   0   0   0   0   0   0   0   0   0   0   0   0   0   0   0   0   0   0   0   0   0   0   0   0   0   0   0   0   0   0   0   0   0   0   0   0   0   0   0   0   0   0   0  31  30  32  35  29  31  30  27  33  29  28  28  
 0   0   0   0   0   0   0   0   0   0   0   0   0   0   0   0   0   0   0   0   0   0   0   0   0   0   0   0   0   0   0   0   0   0   0   0   0   0   0   0   0   0   0   0   0   0   0   0   0  30  28  32  27  31  22  36  29  49  25  18  
 0   0   0   0   0   0   0   0   0   0   0   0   0   0   0   0   0   0   0   0   0   0   0   0   0   0   0   0   0   0   0   0   0   0   0   0   0   0   0   0   0   0   0   0   0   0   0   0   0   0  34  30  30  30  23  34  37  30  30  30  
 0   0   0   0   0   0   0   0   0   0   0   0   0   0   0   0   0   0   0   0   0   0   0   0   0   0   0   0   0   0   0   0   0   0   0   0   0   0   0   0   0   0   0   0   0   0   0   0   0   0   0  43  16  45  22  26  30  28  34  32  
 0   0   0   0   0   0   0   0   0   0   0   0   0   0   0   0   0   0   0   0   0   0   0   0   0   0   0   0   0   0   0   0   0   0   0   0   0   0   0   0   0   0   0   0   0   0   0   0   0   0   0   0  43  19  21  37  30  33  32  30  
 0   0   0   0   0   0   0   0   0   0   0   0   0   0   0   0   0   0   0   0   0   0   0   0   0   0   0   0   0   0   0   0   0   0   0   0   0   0   0   0   0   0   0   0   0   0   0   0   0   0   0   0   0  37  22  17  32  33  30  30  
 0   0   0   0   0   0   0   0   0   0   0   0   0   0   0   0   0   0   0   0   0   0   0   0   0   0   0   0   0   0   0   0   0   0   0   0   0   0   0   0   0   0   0   0   0   0   0   0   0   0   0   0   0   0  38  30  31  27  34  32  
 0   0   0   0   0   0   0   0   0   0   0   0   0   0   0   0   0   0   0   0   0   0   0   0   0   0   0   0   0   0   0   0   0   0   0   0   0   0   0   0   0   0   0   0   0   0   0   0   0   0   0   0   0   0   0  30  37  47  30  30  
 0   0   0   0   0   0   0   0   0   0   0   0   0   0   0   0   0   0   0   0   0   0   0   0   0   0   0   0   0   0   0   0   0   0   0   0   0   0   0   0   0   0   0   0   0   0   0   0   0   0   0   0   0   0   0   0  30  24  23  30  
 0   0   0   0   0   0   0   0   0   0   0   0   0   0   0   0   0   0   0   0   0   0   0   0   0   0   0   0   0   0   0   0   0   0   0   0   0   0   0   0   0   0   0   0   0   0   0   0   0   0   0   0   0   0   0   0   0  33  28  30  
 0   0   0   0   0   0   0   0   0   0   0   0   0   0   0   0   0   0   0   0   0   0   0   0   0   0   0   0   0   0   0   0   0   0   0   0   0   0   0   0   0   0   0   0   0   0   0   0   0   0   0   0   0   0   0   0   0   0  37  22  
 0   0   0   0   0   0   0   0   0   0   0   0   0   0   0   0   0   0   0   0   0   0   0   0   0   0   0   0   0   0   0   0   0   0   0   0   0   0   0   0   0   0   0   0   0   0   0   0   0   0   0   0   0   0   0   0   0   0   0  19  
 0   0   0   0   0   0   0   0   0   0   0   0   0   0   0   0   0   0   0   0   0   0   0   0   0   0   0   0   0   0   0   0   0   0   0   0   0   0   0   0   0   0   0   0   0   0   0   0   0   0   0   0   0   0   0   0   0   0   0   0  
